300
 generated by VMD
 N        -1.496121        0.198435        0.033412
 C        -0.810121       -1.178565        0.347412
 C         0.482879       -1.372565       -0.514588
 N         1.385879       -0.091565       -0.639588
 C         1.010879        1.036435        0.376412
 C        -0.518121        1.381435        0.381412
 H        -0.669121        2.112435       -0.283588
 C        -0.752191        1.717537        1.293687
 H         1.274879        0.739435        1.294412
 H         1.524879        1.861435        0.140412
 H         1.296589        0.274375       -1.565938
 H         1.026879       -2.102565       -0.100588
 H         0.205879       -1.653565       -1.433588
 H        -0.566121       -1.211565        1.316412
 H        -1.451121       -1.919565        0.147412
 H        -2.330951        0.284955        0.577082
 C         0.601514        2.157997        1.766443
 H        -0.911936        0.936457        1.897343
 C        -1.993036        2.555315        1.201968
 H         0.738554        1.354198        2.521352
 H         1.080132        1.824544        0.820243
 C         0.982098        3.362229        2.478201
 H        -2.670502        1.997152        1.883334
 C        -2.139630        4.015675        1.497007
 H        -2.325623        2.368319        0.157788
 H         1.413088        3.335363        3.330708
 H         2.143911        3.593410        1.708660
 C        -1.453362        4.952595        2.373579
 H        -1.984100        4.532130        0.524225
 H        -3.196209        4.180499        1.815111
 H        -1.896892        5.050170        3.264513
 H        -1.326206        5.852124        1.955614
 C         0.146347        4.696544        2.888724
 H         0.078247        4.750112        3.884964
 O         0.879262        5.925514        2.376017
 H         0.161437        7.142783        2.133156
 H         0.000000        0.000000        0.000000
 H         0.000000        0.000000        0.000000
 H         0.000000        0.000000        0.000000
 H         0.000000        0.000000        0.000000
 H         0.000000        0.000000        0.000000
 H         0.000000        0.000000        0.000000
 H         0.000000        0.000000        0.000000
 H         0.000000        0.000000        0.000000
 H         0.000000        0.000000        0.000000
 H         0.000000        0.000000        0.000000
 H         0.000000        0.000000        0.000000
 H         0.000000        0.000000        0.000000
 H         0.000000        0.000000        0.000000
 H         0.000000        0.000000        0.000000
 H         0.000000        0.000000        0.000000
 H         0.000000        0.000000        0.000000
 H         0.000000        0.000000        0.000000
 H         0.000000        0.000000        0.000000
 H         0.000000        0.000000        0.000000
 H         0.000000        0.000000        0.000000
 H         0.000000        0.000000        0.000000
 H         0.000000        0.000000        0.000000
 H         0.000000        0.000000        0.000000
 H         0.000000        0.000000        0.000000
 H         0.000000        0.000000        0.000000
 H         0.000000        0.000000        0.000000
 H         0.000000        0.000000        0.000000
 H         0.000000        0.000000        0.000000
 H         0.000000        0.000000        0.000000
 H         0.000000        0.000000        0.000000
 H         0.000000        0.000000        0.000000
 H         0.000000        0.000000        0.000000
 H         0.000000        0.000000        0.000000
 H         0.000000        0.000000        0.000000
 H         0.000000        0.000000        0.000000
 H         0.000000        0.000000        0.000000
 H         0.000000        0.000000        0.000000
 H         0.000000        0.000000        0.000000
 H         0.000000        0.000000        0.000000
 H         0.000000        0.000000        0.000000
 H         0.000000        0.000000        0.000000
 H         0.000000        0.000000        0.000000
 H         0.000000        0.000000        0.000000
 H         0.000000        0.000000        0.000000
 H         0.000000        0.000000        0.000000
 H         0.000000        0.000000        0.000000
 H         0.000000        0.000000        0.000000
 H         0.000000        0.000000        0.000000
 H         0.000000        0.000000        0.000000
 H         0.000000        0.000000        0.000000
 H         0.000000        0.000000        0.000000
 H         0.000000        0.000000        0.000000
 H         0.000000        0.000000        0.000000
 H         0.000000        0.000000        0.000000
 H         0.000000        0.000000        0.000000
 H         0.000000        0.000000        0.000000
 H         0.000000        0.000000        0.000000
 H         0.000000        0.000000        0.000000
 H         0.000000        0.000000        0.000000
 H         0.000000        0.000000        0.000000
 H         0.000000        0.000000        0.000000
 H         0.000000        0.000000        0.000000
 H         0.000000        0.000000        0.000000
 H         0.000000        0.000000        0.000000
 H         0.000000        0.000000        0.000000
 H         0.000000        0.000000        0.000000
 H         0.000000        0.000000        0.000000
 H         0.000000        0.000000        0.000000
 H         0.000000        0.000000        0.000000
 H         0.000000        0.000000        0.000000
 H         0.000000        0.000000        0.000000
 H         0.000000        0.000000        0.000000
 H         0.000000        0.000000        0.000000
 H         0.000000        0.000000        0.000000
 H         0.000000        0.000000        0.000000
 H         0.000000        0.000000        0.000000
 H         0.000000        0.000000        0.000000
 H         0.000000        0.000000        0.000000
 H         0.000000        0.000000        0.000000
 H         0.000000        0.000000        0.000000
 H         0.000000        0.000000        0.000000
 H         0.000000        0.000000        0.000000
 H         0.000000        0.000000        0.000000
 H         0.000000        0.000000        0.000000
 H         0.000000        0.000000        0.000000
 H         0.000000        0.000000        0.000000
 H         0.000000        0.000000        0.000000
 H         0.000000        0.000000        0.000000
 H         0.000000        0.000000        0.000000
 H         0.000000        0.000000        0.000000
 H         0.000000        0.000000        0.000000
 H         0.000000        0.000000        0.000000
 H         0.000000        0.000000        0.000000
 H         0.000000        0.000000        0.000000
 H         0.000000        0.000000        0.000000
 H         0.000000        0.000000        0.000000
 H         0.000000        0.000000        0.000000
 H         0.000000        0.000000        0.000000
 H         0.000000        0.000000        0.000000
 H         0.000000        0.000000        0.000000
 H         0.000000        0.000000        0.000000
 H         0.000000        0.000000        0.000000
 H         0.000000        0.000000        0.000000
 H         0.000000        0.000000        0.000000
 H         0.000000        0.000000        0.000000
 H         0.000000        0.000000        0.000000
 H         0.000000        0.000000        0.000000
 H         0.000000        0.000000        0.000000
 H         0.000000        0.000000        0.000000
 H         0.000000        0.000000        0.000000
 H         0.000000        0.000000        0.000000
 H         0.000000        0.000000        0.000000
 H         0.000000        0.000000        0.000000
 H         0.000000        0.000000        0.000000
 H         0.000000        0.000000        0.000000
 H         0.000000        0.000000        0.000000
 H         0.000000        0.000000        0.000000
 H         0.000000        0.000000        0.000000
 H         0.000000        0.000000        0.000000
 H         0.000000        0.000000        0.000000
 H         0.000000        0.000000        0.000000
 H         0.000000        0.000000        0.000000
 H         0.000000        0.000000        0.000000
 H         0.000000        0.000000        0.000000
 H         0.000000        0.000000        0.000000
 H         0.000000        0.000000        0.000000
 H         0.000000        0.000000        0.000000
 H         0.000000        0.000000        0.000000
 H         0.000000        0.000000        0.000000
 H         0.000000        0.000000        0.000000
 H         0.000000        0.000000        0.000000
 H         0.000000        0.000000        0.000000
 H         0.000000        0.000000        0.000000
 H         0.000000        0.000000        0.000000
 H         0.000000        0.000000        0.000000
 H         0.000000        0.000000        0.000000
 H         0.000000        0.000000        0.000000
 H         0.000000        0.000000        0.000000
 H         0.000000        0.000000        0.000000
 H         0.000000        0.000000        0.000000
 H         0.000000        0.000000        0.000000
 H         0.000000        0.000000        0.000000
 H         0.000000        0.000000        0.000000
 H         0.000000        0.000000        0.000000
 H         0.000000        0.000000        0.000000
 H         0.000000        0.000000        0.000000
 H         0.000000        0.000000        0.000000
 H         0.000000        0.000000        0.000000
 H         0.000000        0.000000        0.000000
 H         0.000000        0.000000        0.000000
 H         0.000000        0.000000        0.000000
 H         0.000000        0.000000        0.000000
 H         0.000000        0.000000        0.000000
 H         0.000000        0.000000        0.000000
 H         0.000000        0.000000        0.000000
 H         0.000000        0.000000        0.000000
 H         0.000000        0.000000        0.000000
 H         0.000000        0.000000        0.000000
 H         0.000000        0.000000        0.000000
 H         0.000000        0.000000        0.000000
 H         0.000000        0.000000        0.000000
 H         0.000000        0.000000        0.000000
 H         0.000000        0.000000        0.000000
 H         0.000000        0.000000        0.000000
 H         0.000000        0.000000        0.000000
 H         0.000000        0.000000        0.000000
 H         0.000000        0.000000        0.000000
 H         0.000000        0.000000        0.000000
 H         0.000000        0.000000        0.000000
 H         0.000000        0.000000        0.000000
 H         0.000000        0.000000        0.000000
 H         0.000000        0.000000        0.000000
 H         0.000000        0.000000        0.000000
 H         0.000000        0.000000        0.000000
 H         0.000000        0.000000        0.000000
 H         0.000000        0.000000        0.000000
 H         0.000000        0.000000        0.000000
 H         0.000000        0.000000        0.000000
 H         0.000000        0.000000        0.000000
 H         0.000000        0.000000        0.000000
 H         0.000000        0.000000        0.000000
 H         0.000000        0.000000        0.000000
 H         0.000000        0.000000        0.000000
 H         0.000000        0.000000        0.000000
 H         0.000000        0.000000        0.000000
 H         0.000000        0.000000        0.000000
 H         0.000000        0.000000        0.000000
 H         0.000000        0.000000        0.000000
 H         0.000000        0.000000        0.000000
 H         0.000000        0.000000        0.000000
 H         0.000000        0.000000        0.000000
 H         0.000000        0.000000        0.000000
 H         0.000000        0.000000        0.000000
 H         0.000000        0.000000        0.000000
 H         0.000000        0.000000        0.000000
 H         0.000000        0.000000        0.000000
 H         0.000000        0.000000        0.000000
 H         0.000000        0.000000        0.000000
 H         0.000000        0.000000        0.000000
 H         0.000000        0.000000        0.000000
 H         0.000000        0.000000        0.000000
 H         0.000000        0.000000        0.000000
 H         0.000000        0.000000        0.000000
 H         0.000000        0.000000        0.000000
 H         0.000000        0.000000        0.000000
 H         0.000000        0.000000        0.000000
 H         0.000000        0.000000        0.000000
 H         0.000000        0.000000        0.000000
 H         0.000000        0.000000        0.000000
 H         0.000000        0.000000        0.000000
 H         0.000000        0.000000        0.000000
 H         0.000000        0.000000        0.000000
 H         0.000000        0.000000        0.000000
 H         0.000000        0.000000        0.000000
 H         0.000000        0.000000        0.000000
 H         0.000000        0.000000        0.000000
 H         0.000000        0.000000        0.000000
 H         0.000000        0.000000        0.000000
 H         0.000000        0.000000        0.000000
 H         0.000000        0.000000        0.000000
 H         0.000000        0.000000        0.000000
 H         0.000000        0.000000        0.000000
 H         0.000000        0.000000        0.000000
 H         0.000000        0.000000        0.000000
 H         0.000000        0.000000        0.000000
 H         0.000000        0.000000        0.000000
 H         0.000000        0.000000        0.000000
 H         0.000000        0.000000        0.000000
 H         0.000000        0.000000        0.000000
 H         0.000000        0.000000        0.000000
 H         0.000000        0.000000        0.000000
 H         0.000000        0.000000        0.000000
 H         0.000000        0.000000        0.000000
 H         0.000000        0.000000        0.000000
 H         0.000000        0.000000        0.000000
 H         0.000000        0.000000        0.000000
 H         0.000000        0.000000        0.000000
 H         0.000000        0.000000        0.000000
 H         0.000000        0.000000        0.000000
 H         0.000000        0.000000        0.000000
 H         0.000000        0.000000        0.000000
 H         0.000000        0.000000        0.000000
 H         0.000000        0.000000        0.000000
 H         0.000000        0.000000        0.000000
 H         0.000000        0.000000        0.000000
 H         0.000000        0.000000        0.000000
 H         0.000000        0.000000        0.000000
 H         0.000000        0.000000        0.000000
 H         0.000000        0.000000        0.000000
 H         0.000000        0.000000        0.000000
 H         0.000000        0.000000        0.000000
 H         0.000000        0.000000        0.000000
 H         0.000000        0.000000        0.000000
 H         0.000000        0.000000        0.000000
 H         0.000000        0.000000        0.000000
 H         0.000000        0.000000        0.000000
 H         0.000000        0.000000        0.000000
 H         0.000000        0.000000        0.000000
 H         0.000000        0.000000        0.000000
 H         0.000000        0.000000        0.000000
 H         0.000000        0.000000        0.000000
 H         0.000000        0.000000        0.000000
 H         0.000000        0.000000        0.000000
 H         0.000000        0.000000        0.000000
