   36

N      -1.368993    0.134636   -0.126881
C      -0.782894   -1.103023    0.264174
C       0.503974   -1.353153   -0.554836
N       1.380182   -0.267199   -0.797118
C       1.012206    0.771435    0.120317
C      -0.479802    1.193618    0.052611
H      -0.643432    2.091984   -0.529447
C      -0.880133    1.775434    1.580230
H       1.327286    0.485256    1.170431
H       1.674917    1.710729   -0.152068
H       1.288539    0.160442   -1.702591
H       1.093864   -2.248355   -0.034887
H       0.158269   -1.736727   -1.603860
H      -0.531075   -1.183649    1.433777
H      -1.504608   -2.020345    0.116789
H      -2.244970    0.278436    0.486741
C       0.507361    2.302817    2.054784
H      -1.057464    0.839539    2.131729
C      -2.078496    2.521135    1.326886
H       0.906143    1.456056    2.689410
H       1.089464    2.278527    1.194014
C       1.059429    3.639982    2.548468
H      -2.939417    2.038240    1.926992
C      -2.224614    4.090047    1.414364
H      -2.395953    2.375117    0.225578
H       1.606219    3.359205    3.553132
H       1.980035    3.823277    1.829088
C      -1.276270    4.913410    2.432107
H      -2.052846    4.542684    0.422661
H      -3.270731    4.284702    1.726490
H      -1.940370    5.047022    3.409199
H      -1.408678    5.991786    1.919247
C       0.141974    4.834650    2.777377
H       0.133500    4.830164    3.946344
O       0.943072    6.008313    2.346189
H       0.216665    6.793715    2.251256
